;; unsat

(declare-const x1 sl.list.loc)
(declare-const x2 sl.list.loc)
(declare-const x3 sl.list.loc)
(declare-const x4 sl.list.loc)
(declare-const x5 sl.list.loc)
(declare-const x6 sl.list.loc)
(declare-const x7 sl.list.loc)
(declare-const x8 sl.list.loc)
(declare-const x9 sl.list.loc)
(declare-const x10 sl.list.loc)
(declare-const x11 sl.list.loc)
(declare-const x12 sl.list.loc)
(declare-const x13 sl.list.loc)
(declare-const x14 sl.list.loc)
(declare-const x15 sl.list.loc)
(declare-const x16 sl.list.loc)
(declare-const x17 sl.list.loc)
(declare-const x18 sl.list.loc)

(assert (sl.sepcon (sl.sepcon (sl.sepcon (sl.sepcon (sl.sepcon (sl.sepcon (sl.sepcon (sl.sepcon (sl.sepcon (sl.sepcon (sl.sepcon (sl.sepcon (sl.sepcon (sl.sepcon (sl.sepcon (sl.sepcon (sl.sepcon (sl.sepcon (sl.sepcon (sl.sepcon (sl.sepcon (sl.sepcon (sl.sepcon (sl.sepcon (sl.sepcon (sl.sepcon (sl.sepcon (sl.sepcon (sl.sepcon (sl.sepcon (sl.list.eq sl.list.null sl.list.null)
 (sl.list.neq x11 x14)
)
 (sl.list.neq x7 x8)
)
 (sl.list.neq x7 x18)
)
 (sl.list.neq x2 x6)
)
 (sl.list.neq x1 x7)
)
 (sl.list.neq x6 x11)
)
 (sl.list.neq x6 x18)
)
 (sl.list.neq x6 x9)
)
 (sl.list.neq x6 x10)
)
 (sl.list.neq x6 x17)
)
 (sl.list.neq x6 x15)
)
 (sl.list.neq x3 x4)
)
 (sl.list.neq x3 x16)
)
 (sl.list.neq x3 x13)
)
 (sl.list.neq x3 x12)
)
 (sl.list.neq x3 x5)
)
 (sl.list.neq x3 x15)
)
 (sl.list.neq x3 x14)
)
 (sl.list.neq x9 x15)
)
 (sl.list.neq x12 x18)
)
 (sl.list.neq x8 x10)
)
 (sl.list.neq x4 x8)
)
 (sl.list.neq x4 x18)
)
 (sl.list.neq x10 x11)
)
 (sl.list.neq x10 x13)
)
 (sl.list.neq x5 x18)
)
 (sl.list.neq x5 x7)
)
 (sl.list.neq x5 x13)
)
 (sl.list.neq x5 x17)
)
 (sl.sepcon (sl.sepcon (sl.sepcon (sl.sepcon (sl.sepcon (sl.sepcon (sl.sepcon (sl.sepcon (sl.sepcon (sl.sepcon (sl.sepcon (sl.list.seg x13 x7)
 (sl.list.seg x13 x18)
)
 (sl.list.seg x13 x4)
)
 (sl.list.seg x1 x8)
)
 (sl.list.seg x4 x10)
)
 (sl.list.seg x8 x5)
)
 (sl.list.seg x15 x12)
)
 (sl.list.seg x15 x13)
)
 (sl.list.seg x12 x17)
)
 (sl.list.seg x7 x10)
)
 (sl.list.seg x6 x14)
)
 (sl.list.seg x6 x3)
)
)
)

